p wcnf 133 66 67 
1 39 -31 0 
1 25 -100 0 
1 118 105 0 
1 49 -128 0 
1 69 -117 0 
1 104 116 0 
1 -84 129 0 
1 129 -21 0 
1 -53 -43 0 
1 -70 120 0 
1 -66 26 0 
1 -63 6 0 
1 29 -2 0 
1 105 66 0 
1 100 -80 0 
1 29 7 0 
1 106 -2 0 
1 -7 6 0 
1 34 -74 0 
1 14 6 0 
1 32 38 0 
1 -23 -93 0 
1 91 2 0 
1 -96 -47 0 
1 -9 13 0 
1 -7 -41 0 
1 100 -60 0 
1 88 -67 0 
1 83 69 0 
1 -32 -35 0 
1 133 72 0 
1 27 118 0 
1 -116 27 0 
1 19 57 0 
1 113 84 0 
1 -7 131 0 
1 51 -84 0 
1 -57 48 0 
1 -29 108 0 
1 -58 119 0 
1 32 -51 0 
1 -124 -81 0 
1 46 51 0 
1 -28 26 0 
1 115 103 0 
1 -33 -53 0 
1 92 56 0 
1 -120 27 0 
1 69 -116 0 
1 33 120 0 
1 -85 -27 0 
1 -117 -29 0 
1 -64 -42 0 
1 111 -64 0 
1 16 11 0 
1 27 40 0 
1 120 64 0 
1 -108 107 0 
1 54 63 0 
1 -56 46 0 
1 112 -119 0 
1 -37 130 0 
1 -34 -71 0 
1 -128 -19 0 
1 19 69 0 
1 19 -125 0 
